JulietBench/Juliet_Based_Patch_Bench/linux/CWE-189-Numeric-Errors/CVE_2010_4165_7a1abd08d52fdeddb3e9a5a33f2f15cc6a5674d2/Resultdo_tcp_setsockopt_SnippetEQ.smt2
; benchmark generated from python API
(set-info :status unknown)
(declare-fun R () (_ BitVec 32))
(declare-fun rdi () (_ BitVec 32))
(assert
 (let (($x171 (= (_ bv4294967274 32) R)))
 (let ((?x6 ((_ extract 31 0) rdi)))
 (let (($x53 (bvsge (_ bv63 32) ?x6)))
 (let (($x174 (and $x53 $x171)))
 (let (($x173 (= R ?x6)))
 (let (($x164 (bvslt (_ bv63 32) ?x6)))
 (let (($x45 (bvule ?x6 (_ bv32767 32))))
 (let (($x180 (and $x45 $x164 $x173)))
 (let (($x156 (bvugt ?x6 (_ bv32767 32))))
 (let (($x183 (and $x156 $x164 $x171)))
 (let (($x7 (or $x183 $x180 $x174)))
 (let (($x11 (bvsge (_ bv7 32) ?x6)))
 (let (($x168 (and $x11 $x171)))
 (let (($x41 (bvslt (_ bv7 32) ?x6)))
 (let (($x167 (and $x45 $x41 $x173)))
 (let (($x172 (and $x156 $x41 $x171)))
 (let (($x181 (or $x172 $x167 $x168)))
 (and $x181 $x7)))))))))))))))))))
(check-sat)
